experiment/data/hgs-res/Vrp-Set-P-n55/Vrp-Set-P-n55-hgs/2.hgs1.tour
Route #1: 51 16 49 24 23 43 41 42 22 1 33
Route #2: 6 2 28 21 47 48 30
Route #3: 4 45 29 5 36 37 20 15 27
Route #4: 34 52 13 54 19 14 35 8 46
Route #5: 39 31 10 38 11 53 7
Route #6: 17 12 26
Route #7: 3 44 32 50 18 25 9 40
Cost 570.27
